% File represents an instance of a Composite Structure problem to be solved by a CP framework
% Created on 2025-03-26 10:41:25.032
T = 56;
n = 16;
m = 24;
edges = [(2, 1),
(6, 5),
(10, 9),
(14, 13),
(2, 3),
(6, 7),
(11, 10),
(15, 14),
(3, 4),
(7, 8),
(11, 12),
(15, 16),
(1, 5),
(5, 9),
(13, 9),
(2, 6),
(6, 10),
(14, 10),
(3, 7),
(11, 7),
(15, 11),
(4, 8),
(12, 8),
(16, 12)];
counts = [|16, 8, 16, 10,
|16, 10, 16, 14,
|16, 10, 16, 12,
|16, 8, 16, 10,
|16, 8, 16, 6,
|16, 8, 16, 10,
|16, 6, 16, 10,
|16, 4, 16, 10,
|14, 8, 14, 6,
|16, 8, 16, 8,
|16, 10, 16, 10,
|16, 8, 16, 10,
|16, 10, 16, 6,
|16, 10, 16, 10,
|16, 12, 16, 10,
|16, 10, 16, 10|];
